
Gurobi 12.0.3 (win64, gurobi_cl) logging started Wed Nov 12 16:50:36 2025

Set parameter Username
Set parameter LogFile to value "gurobi.log"
Using license file C:\Users\engs2859\gurobi.lic
Academic license - for non-commercial use only - expires 2026-08-19

Gurobi 12.0.3 (win64, gurobi_cl) logging started Thu Nov 13 11:57:10 2025

Set parameter Username
Set parameter LogFile to value "gurobi.log"
Using license file C:\Users\engs2859\gurobi.lic
Academic license - for non-commercial use only - expires 2026-08-19

Gurobi 12.0.3 (win64, gurobi_cl) logging started Thu Nov 13 12:14:48 2025

Set parameter Username
Set parameter LogFile to value "gurobi.log"
Using license file C:\Users\engs2859\gurobi.lic
Academic license - for non-commercial use only - expires 2026-08-19

Gurobi 12.0.3 (win64, gurobi_cl) logging started Thu Nov 13 14:44:29 2025

Set parameter Username
Set parameter LogFile to value "gurobi.log"
Using license file C:\Users\engs2859\gurobi.lic
Academic license - for non-commercial use only - expires 2026-08-19

Gurobi 12.0.3 (win64, gurobi_cl) logging started Thu Nov 13 14:57:42 2025

Set parameter Username
Set parameter LogFile to value "gurobi.log"
Using license file C:\Users\engs2859\gurobi.lic
Academic license - for non-commercial use only - expires 2026-08-19

Gurobi 12.0.3 (win64, gurobi_cl) logging started Thu Nov 13 15:04:23 2025

Set parameter Username
Set parameter LogFile to value "gurobi.log"
Using license file C:\Users\engs2859\gurobi.lic
Academic license - for non-commercial use only - expires 2026-08-19

Gurobi 12.0.3 (win64, gurobi_cl) logging started Thu Nov 13 15:38:52 2025

Set parameter Username
Set parameter LogFile to value "gurobi.log"
Using license file C:\Users\engs2859\gurobi.lic
Academic license - for non-commercial use only - expires 2026-08-19

Gurobi 12.0.3 (win64, gurobi_cl) logging started Thu Nov 13 15:43:04 2025

Set parameter Username
Set parameter LogFile to value "gurobi.log"
Using license file C:\Users\engs2859\gurobi.lic
Academic license - for non-commercial use only - expires 2026-08-19

Gurobi 12.0.3 (win64, gurobi_cl) logging started Thu Nov 13 16:01:21 2025

Set parameter Username
Set parameter LogFile to value "gurobi.log"
Using license file C:\Users\engs2859\gurobi.lic
Academic license - for non-commercial use only - expires 2026-08-19

Gurobi 12.0.3 (win64, gurobi_cl) logging started Thu Nov 13 16:02:27 2025

Set parameter Username
Set parameter LogFile to value "gurobi.log"
Using license file C:\Users\engs2859\gurobi.lic
Academic license - for non-commercial use only - expires 2026-08-19

Gurobi 12.0.3 (win64, gurobi_cl) logging started Thu Nov 13 22:38:05 2025

Set parameter Username
Set parameter LogFile to value "gurobi.log"
Using license file C:\Users\engs2859\gurobi.lic
Academic license - for non-commercial use only - expires 2026-08-19

Gurobi 12.0.3 (win64, gurobi_cl) logging started Fri Nov 14 09:52:57 2025

Set parameter Username
Set parameter LogFile to value "gurobi.log"
Using license file C:\Users\engs2859\gurobi.lic
Academic license - for non-commercial use only - expires 2026-08-19

Gurobi 12.0.3 (win64, gurobi_cl) logging started Fri Nov 14 10:48:51 2025

Set parameter Username
Set parameter LogFile to value "gurobi.log"
Using license file C:\Users\engs2859\gurobi.lic
Academic license - for non-commercial use only - expires 2026-08-19

Gurobi 12.0.3 (win64, gurobi_cl) logging started Fri Nov 14 10:49:21 2025

Set parameter Username
Set parameter LogFile to value "gurobi.log"
Using license file C:\Users\engs2859\gurobi.lic
Academic license - for non-commercial use only - expires 2026-08-19

Gurobi 12.0.3 (win64, gurobi_cl) logging started Fri Nov 14 14:54:00 2025

Set parameter Username
Set parameter LogFile to value "gurobi.log"
Using license file C:\Users\engs2859\gurobi.lic
Academic license - for non-commercial use only - expires 2026-08-19

Gurobi 12.0.3 (win64, gurobi_cl) logging started Fri Nov 14 15:53:45 2025

Set parameter Username
Set parameter LogFile to value "gurobi.log"
Using license file C:\Users\engs2859\gurobi.lic
Academic license - for non-commercial use only - expires 2026-08-19

Gurobi 12.0.3 (win64, gurobi_cl) logging started Sun Nov 16 23:18:27 2025

Set parameter Username
Set parameter LogFile to value "gurobi.log"
Using license file C:\Users\engs2859\gurobi.lic
Academic license - for non-commercial use only - expires 2026-08-19

Gurobi 12.0.3 (win64, gurobi_cl) logging started Thu Jan 15 15:07:43 2026

Set parameter Username
Set parameter LogFile to value "gurobi.log"
Using license file C:\Users\engs2859\gurobi.lic
Academic license - for non-commercial use only - expires 2026-08-19

Gurobi 12.0.3 (win64, gurobi_cl) logging started Thu Jan 15 15:08:58 2026

Set parameter Username
Set parameter LogFile to value "gurobi.log"
Using license file C:\Users\engs2859\gurobi.lic
Academic license - for non-commercial use only - expires 2026-08-19

Gurobi 12.0.3 (win64, gurobi_cl) logging started Thu Jan 15 15:11:09 2026

Set parameter Username
Set parameter LogFile to value "gurobi.log"
Using license file C:\Users\engs2859\gurobi.lic
Academic license - for non-commercial use only - expires 2026-08-19

Gurobi 12.0.3 (win64, gurobi_cl) logging started Thu Jan 15 15:30:38 2026

Set parameter Username
Set parameter LogFile to value "gurobi.log"
Using license file C:\Users\engs2859\gurobi.lic
Academic license - for non-commercial use only - expires 2026-08-19

Gurobi 12.0.3 (win64, gurobi_cl) logging started Thu Jan 15 17:27:10 2026

Set parameter Username
Set parameter LogFile to value "gurobi.log"
Using license file C:\Users\engs2859\gurobi.lic
Academic license - for non-commercial use only - expires 2026-08-19

Gurobi 12.0.3 (win64, gurobi_cl) logging started Thu Jan 15 23:17:59 2026

Set parameter Username
Set parameter LogFile to value "gurobi.log"
Using license file C:\Users\engs2859\gurobi.lic
Academic license - for non-commercial use only - expires 2026-08-19

Gurobi 12.0.3 (win64, gurobi_cl) logging started Thu Jan 15 23:54:08 2026

Set parameter Username
Set parameter LogFile to value "gurobi.log"
Using license file C:\Users\engs2859\gurobi.lic
Academic license - for non-commercial use only - expires 2026-08-19

Gurobi 12.0.3 (win64, gurobi_cl) logging started Fri Jan 16 10:30:07 2026

Set parameter Username
Set parameter LogFile to value "gurobi.log"
Using license file C:\Users\engs2859\gurobi.lic
Academic license - for non-commercial use only - expires 2026-08-19

Gurobi 12.0.3 (win64, gurobi_cl) logging started Fri Jan 16 10:46:47 2026

Set parameter Username
Set parameter LogFile to value "gurobi.log"
Using license file C:\Users\engs2859\gurobi.lic
Academic license - for non-commercial use only - expires 2026-08-19

Gurobi 12.0.3 (win64, gurobi_cl) logging started Fri Jan 16 15:28:14 2026

Set parameter Username
Set parameter LogFile to value "gurobi.log"
Using license file C:\Users\engs2859\gurobi.lic
Academic license - for non-commercial use only - expires 2026-08-19

Gurobi 12.0.3 (win64, gurobi_cl) logging started Sat Jan 24 21:37:05 2026

Set parameter Username
Set parameter LogFile to value "gurobi.log"
Using license file C:\Users\engs2859\gurobi.lic
Academic license - for non-commercial use only - expires 2026-08-19

Gurobi 12.0.3 (win64, gurobi_cl) logging started Sat Jan 24 23:41:52 2026

Set parameter Username
Set parameter LogFile to value "gurobi.log"
Using license file C:\Users\engs2859\gurobi.lic
Academic license - for non-commercial use only - expires 2026-08-19

Gurobi 12.0.3 (win64, gurobi_cl) logging started Sat Jan 24 23:50:27 2026

Set parameter Username
Set parameter LogFile to value "gurobi.log"
Using license file C:\Users\engs2859\gurobi.lic
Academic license - for non-commercial use only - expires 2026-08-19

Gurobi 12.0.3 (win64, gurobi_cl) logging started Sun Jan 25 09:17:09 2026

Set parameter Username
Set parameter LogFile to value "gurobi.log"
Using license file C:\Users\engs2859\gurobi.lic
Academic license - for non-commercial use only - expires 2026-08-19

Gurobi 12.0.3 (win64, gurobi_cl) logging started Sun Jan 25 09:21:41 2026

Set parameter Username
Set parameter LogFile to value "gurobi.log"
Using license file C:\Users\engs2859\gurobi.lic
Academic license - for non-commercial use only - expires 2026-08-19

Gurobi 12.0.3 (win64, gurobi_cl) logging started Sun Jan 25 11:29:12 2026

Set parameter Username
Set parameter LogFile to value "gurobi.log"
Using license file C:\Users\engs2859\gurobi.lic
Academic license - for non-commercial use only - expires 2026-08-19

Gurobi 12.0.3 (win64, gurobi_cl) logging started Sun Jan 25 11:36:03 2026

Set parameter Username
Set parameter LogFile to value "gurobi.log"
Using license file C:\Users\engs2859\gurobi.lic
Academic license - for non-commercial use only - expires 2026-08-19

Gurobi 12.0.3 (win64, gurobi_cl) logging started Sun Jan 25 13:21:42 2026

Set parameter Username
Set parameter LogFile to value "gurobi.log"
Using license file C:\Users\engs2859\gurobi.lic
Academic license - for non-commercial use only - expires 2026-08-19

Gurobi 12.0.3 (win64, gurobi_cl) logging started Sun Jan 25 13:23:34 2026

Set parameter Username
Set parameter LogFile to value "gurobi.log"
Using license file C:\Users\engs2859\gurobi.lic
Academic license - for non-commercial use only - expires 2026-08-19

Gurobi 12.0.3 (win64, gurobi_cl) logging started Sun Jan 25 13:23:39 2026

Set parameter Username
Set parameter LogFile to value "gurobi.log"
Using license file C:\Users\engs2859\gurobi.lic
Academic license - for non-commercial use only - expires 2026-08-19

Gurobi 12.0.3 (win64, gurobi_cl) logging started Sun Jan 25 13:25:02 2026

Set parameter Username
Set parameter LogFile to value "gurobi.log"
Using license file C:\Users\engs2859\gurobi.lic
Academic license - for non-commercial use only - expires 2026-08-19

Gurobi 12.0.3 (win64, gurobi_cl) logging started Sun Jan 25 13:25:17 2026

Set parameter Username
Set parameter LogFile to value "gurobi.log"
Using license file C:\Users\engs2859\gurobi.lic
Academic license - for non-commercial use only - expires 2026-08-19

Gurobi 12.0.3 (win64, gurobi_cl) logging started Sun Jan 25 13:25:44 2026

Set parameter Username
Set parameter LogFile to value "gurobi.log"
Using license file C:\Users\engs2859\gurobi.lic
Academic license - for non-commercial use only - expires 2026-08-19

Gurobi 12.0.3 (win64, gurobi_cl) logging started Sun Jan 25 15:29:16 2026

Set parameter Username
Set parameter LogFile to value "gurobi.log"
Using license file C:\Users\engs2859\gurobi.lic
Academic license - for non-commercial use only - expires 2026-08-19

Gurobi 12.0.3 (win64, gurobi_cl) logging started Sun Jan 25 15:33:12 2026

Set parameter Username
Set parameter LogFile to value "gurobi.log"
Using license file C:\Users\engs2859\gurobi.lic
Academic license - for non-commercial use only - expires 2026-08-19

Gurobi 12.0.3 (win64, gurobi_cl) logging started Sun Jan 25 15:34:32 2026

Set parameter Username
Set parameter LogFile to value "gurobi.log"
Using license file C:\Users\engs2859\gurobi.lic
Academic license - for non-commercial use only - expires 2026-08-19

Gurobi 12.0.3 (win64, gurobi_cl) logging started Sun Jan 25 15:34:56 2026

Set parameter Username
Set parameter LogFile to value "gurobi.log"
Using license file C:\Users\engs2859\gurobi.lic
Academic license - for non-commercial use only - expires 2026-08-19

Gurobi 12.0.3 (win64, gurobi_cl) logging started Sun Jan 25 15:35:16 2026

Set parameter Username
Set parameter LogFile to value "gurobi.log"
Using license file C:\Users\engs2859\gurobi.lic
Academic license - for non-commercial use only - expires 2026-08-19

Gurobi 12.0.3 (win64, gurobi_cl) logging started Sun Jan 25 18:54:45 2026

Set parameter Username
Set parameter LogFile to value "gurobi.log"
Using license file C:\Users\engs2859\gurobi.lic
Academic license - for non-commercial use only - expires 2026-08-19

Gurobi 12.0.3 (win64, gurobi_cl) logging started Sun Jan 25 18:58:03 2026

Set parameter Username
Set parameter LogFile to value "gurobi.log"
Using license file C:\Users\engs2859\gurobi.lic
Academic license - for non-commercial use only - expires 2026-08-19

Gurobi 12.0.3 (win64, gurobi_cl) logging started Sun Jan 25 19:03:56 2026

Set parameter Username
Set parameter LogFile to value "gurobi.log"
Using license file C:\Users\engs2859\gurobi.lic
Academic license - for non-commercial use only - expires 2026-08-19

Gurobi 12.0.3 (win64, gurobi_cl) logging started Sun Jan 25 19:05:16 2026

Set parameter Username
Set parameter LogFile to value "gurobi.log"
Using license file C:\Users\engs2859\gurobi.lic
Academic license - for non-commercial use only - expires 2026-08-19

Gurobi 12.0.3 (win64, gurobi_cl) logging started Sun Jan 25 19:05:46 2026

Set parameter Username
Set parameter LogFile to value "gurobi.log"
Using license file C:\Users\engs2859\gurobi.lic
Academic license - for non-commercial use only - expires 2026-08-19

Gurobi 12.0.3 (win64, gurobi_cl) logging started Sun Jan 25 19:05:54 2026

Set parameter Username
Set parameter LogFile to value "gurobi.log"
Using license file C:\Users\engs2859\gurobi.lic
Academic license - for non-commercial use only - expires 2026-08-19

Gurobi 12.0.3 (win64, gurobi_cl) logging started Sun Jan 25 19:06:00 2026

Set parameter Username
Set parameter LogFile to value "gurobi.log"
Using license file C:\Users\engs2859\gurobi.lic
Academic license - for non-commercial use only - expires 2026-08-19

Gurobi 12.0.3 (win64, gurobi_cl) logging started Sun Jan 25 19:08:42 2026

Set parameter Username
Set parameter LogFile to value "gurobi.log"
Using license file C:\Users\engs2859\gurobi.lic
Academic license - for non-commercial use only - expires 2026-08-19

Gurobi 12.0.3 (win64, gurobi_cl) logging started Sun Jan 25 19:09:11 2026

Set parameter Username
Set parameter LogFile to value "gurobi.log"
Using license file C:\Users\engs2859\gurobi.lic
Academic license - for non-commercial use only - expires 2026-08-19

Gurobi 12.0.3 (win64, gurobi_cl) logging started Sun Jan 25 20:47:10 2026

Set parameter Username
Set parameter LogFile to value "gurobi.log"
Using license file C:\Users\engs2859\gurobi.lic
Academic license - for non-commercial use only - expires 2026-08-19

Gurobi 12.0.3 (win64, gurobi_cl) logging started Sun Jan 25 20:51:39 2026

Set parameter Username
Set parameter LogFile to value "gurobi.log"
Using license file C:\Users\engs2859\gurobi.lic
Academic license - for non-commercial use only - expires 2026-08-19

Gurobi 12.0.3 (win64, gurobi_cl) logging started Mon Jan 26 09:31:16 2026

Set parameter Username
Set parameter LogFile to value "gurobi.log"
Using license file C:\Users\engs2859\gurobi.lic
Academic license - for non-commercial use only - expires 2026-08-19

Gurobi 12.0.3 (win64, gurobi_cl) logging started Mon Jan 26 09:34:07 2026

Set parameter Username
Set parameter LogFile to value "gurobi.log"
Using license file C:\Users\engs2859\gurobi.lic
Academic license - for non-commercial use only - expires 2026-08-19

Gurobi 12.0.3 (win64, gurobi_cl) logging started Mon Jan 26 09:36:40 2026

Set parameter Username
Set parameter LogFile to value "gurobi.log"
Using license file C:\Users\engs2859\gurobi.lic
Academic license - for non-commercial use only - expires 2026-08-19

Gurobi 12.0.3 (win64, gurobi_cl) logging started Mon Jan 26 11:24:57 2026

Set parameter Username
Set parameter LogFile to value "gurobi.log"
Using license file C:\Users\engs2859\gurobi.lic
Academic license - for non-commercial use only - expires 2026-08-19

Gurobi 12.0.3 (win64, gurobi_cl) logging started Mon Jan 26 14:39:38 2026

Set parameter Username
Set parameter LogFile to value "gurobi.log"
Using license file C:\Users\engs2859\gurobi.lic
Academic license - for non-commercial use only - expires 2026-08-19

Gurobi 12.0.3 (win64, gurobi_cl) logging started Mon Jan 26 14:40:21 2026

Set parameter Username
Set parameter LogFile to value "gurobi.log"
Using license file C:\Users\engs2859\gurobi.lic
Academic license - for non-commercial use only - expires 2026-08-19

Gurobi 12.0.3 (win64, gurobi_cl) logging started Mon Jan 26 14:40:29 2026

Set parameter Username
Set parameter LogFile to value "gurobi.log"
Using license file C:\Users\engs2859\gurobi.lic
Academic license - for non-commercial use only - expires 2026-08-19

Gurobi 12.0.3 (win64, gurobi_cl) logging started Mon Jan 26 14:40:33 2026

Set parameter Username
Set parameter LogFile to value "gurobi.log"
Using license file C:\Users\engs2859\gurobi.lic
Academic license - for non-commercial use only - expires 2026-08-19

Gurobi 12.0.3 (win64, gurobi_cl) logging started Mon Jan 26 15:59:11 2026

Set parameter Username
Set parameter LogFile to value "gurobi.log"
Using license file C:\Users\engs2859\gurobi.lic
Academic license - for non-commercial use only - expires 2026-08-19

Gurobi 12.0.3 (win64, gurobi_cl) logging started Mon Jan 26 16:07:38 2026

Set parameter Username
Set parameter LogFile to value "gurobi.log"
Using license file C:\Users\engs2859\gurobi.lic
Academic license - for non-commercial use only - expires 2026-08-19

Gurobi 12.0.3 (win64, gurobi_cl) logging started Mon Jan 26 23:36:48 2026

Set parameter Username
Set parameter LogFile to value "gurobi.log"
Using license file C:\Users\engs2859\gurobi.lic
Academic license - for non-commercial use only - expires 2026-08-19

Gurobi 12.0.3 (win64, gurobi_cl) logging started Mon Jan 26 23:49:52 2026

Set parameter Username
Set parameter LogFile to value "gurobi.log"
Using license file C:\Users\engs2859\gurobi.lic
Academic license - for non-commercial use only - expires 2026-08-19

Gurobi 12.0.3 (win64, gurobi_cl) logging started Tue Jan 27 01:04:49 2026

Set parameter Username
Set parameter LogFile to value "gurobi.log"
Using license file C:\Users\engs2859\gurobi.lic
Academic license - for non-commercial use only - expires 2026-08-19

Gurobi 12.0.3 (win64, gurobi_cl) logging started Tue Jan 27 01:13:55 2026

Set parameter Username
Set parameter LogFile to value "gurobi.log"
Using license file C:\Users\engs2859\gurobi.lic
Academic license - for non-commercial use only - expires 2026-08-19

Gurobi 12.0.3 (win64, gurobi_cl) logging started Tue Jan 27 11:26:19 2026

Set parameter Username
Set parameter LogFile to value "gurobi.log"
Using license file C:\Users\engs2859\gurobi.lic
Academic license - for non-commercial use only - expires 2026-08-19

Gurobi 12.0.3 (win64, gurobi_cl) logging started Tue Jan 27 11:26:57 2026

Set parameter Username
Set parameter LogFile to value "gurobi.log"
Using license file C:\Users\engs2859\gurobi.lic
Academic license - for non-commercial use only - expires 2026-08-19

Gurobi 12.0.3 (win64, gurobi_cl) logging started Tue Jan 27 11:27:44 2026

Set parameter Username
Set parameter LogFile to value "gurobi.log"
Using license file C:\Users\engs2859\gurobi.lic
Academic license - for non-commercial use only - expires 2026-08-19

Gurobi 12.0.3 (win64, gurobi_cl) logging started Tue Jan 27 13:07:52 2026

Set parameter Username
Set parameter LogFile to value "gurobi.log"
Using license file C:\Users\engs2859\gurobi.lic
Academic license - for non-commercial use only - expires 2026-08-19
